
Gurobi 5.6.3 (linux64) logging started Wed Jul  8 13:46:19 2015


Gurobi 5.6.3 (linux64) logging started Wed Jul  8 13:46:58 2015


Gurobi 5.6.3 (linux64) logging started Wed Jul  8 16:36:21 2015


Gurobi 5.6.3 (linux64) logging started Wed Jul  8 16:40:18 2015


Gurobi 5.6.3 (linux64) logging started Wed Jul  8 16:40:30 2015


Gurobi 5.6.3 (linux64) logging started Wed Jul  8 16:46:36 2015


Gurobi 5.6.3 (linux64) logging started Wed Jul  8 17:12:28 2015


Gurobi 5.6.3 (linux64) logging started Wed Jul  8 17:29:33 2015


Gurobi 5.6.3 (linux64) logging started Wed Jul  8 23:23:05 2015


Gurobi 5.6.3 (linux64) logging started Wed Jul  8 23:23:41 2015


Gurobi 5.6.3 (linux64) logging started Wed Jul  8 23:25:04 2015


Gurobi 5.6.3 (linux64) logging started Wed Jul  8 23:25:34 2015


Gurobi 5.6.3 (linux64) logging started Wed Jul  8 23:28:17 2015


Gurobi 5.6.3 (linux64) logging started Wed Jul  8 23:29:23 2015


Gurobi 5.6.3 (linux64) logging started Wed Jul  8 23:31:57 2015


Gurobi 5.6.3 (linux64) logging started Wed Jul  8 23:33:40 2015


Gurobi 5.6.3 (linux64) logging started Wed Jul  8 23:37:50 2015


Gurobi 5.6.3 (linux64) logging started Wed Jul  8 23:38:31 2015


Gurobi 5.6.3 (linux64) logging started Wed Jul  8 23:48:36 2015


Gurobi 5.6.3 (linux64) logging started Thu Jul  9 11:32:18 2015


Gurobi 5.6.3 (linux64) logging started Thu Jul  9 11:32:40 2015


Gurobi 5.6.3 (linux64) logging started Thu Jul  9 11:35:03 2015


Gurobi 5.6.3 (linux64) logging started Thu Jul  9 11:36:37 2015


Gurobi 5.6.3 (linux64) logging started Thu Jul  9 11:40:46 2015


Gurobi 5.6.3 (linux64) logging started Thu Jul  9 11:44:01 2015


Gurobi 5.6.3 (linux64) logging started Thu Jul  9 11:47:25 2015


Gurobi 5.6.3 (linux64) logging started Thu Jul  9 11:52:39 2015


Gurobi 5.6.3 (linux64) logging started Thu Jul  9 11:58:02 2015


Gurobi 5.6.3 (linux64) logging started Tue Jul 14 14:18:11 2015


Gurobi 5.6.3 (linux64) logging started Tue Jul 14 14:30:58 2015


Gurobi 5.6.3 (linux64) logging started Tue Jul 14 14:31:29 2015


Gurobi 5.6.3 (linux64) logging started Tue Jul 14 14:32:47 2015


Gurobi 5.6.3 (linux64) logging started Tue Jul 14 14:33:50 2015


Gurobi 5.6.3 (linux64) logging started Tue Jul 14 14:34:14 2015


Gurobi 5.6.3 (linux64) logging started Tue Jul 14 14:35:00 2015


Gurobi 5.6.3 (linux64) logging started Tue Jul 14 14:38:49 2015


Gurobi 5.6.3 (linux64) logging started Tue Jul 14 14:39:14 2015


Gurobi 5.6.3 (linux64) logging started Tue Jul 14 14:41:09 2015


Gurobi 5.6.3 (linux64) logging started Tue Jul 14 14:45:38 2015


Gurobi 5.6.3 (linux64) logging started Tue Jul 14 14:46:28 2015


Gurobi 5.6.3 (linux64) logging started Tue Jul 14 14:52:04 2015


Gurobi 5.6.3 (linux64) logging started Tue Jul 14 14:52:27 2015


Gurobi 5.6.3 (linux64) logging started Tue Jul 14 15:02:50 2015


Gurobi 5.6.3 (linux64) logging started Tue Jul 14 15:20:55 2015


Gurobi 5.6.3 (linux64) logging started Tue Jul 14 15:35:55 2015


Gurobi 5.6.3 (linux64) logging started Tue Jul 14 16:26:57 2015


Gurobi 5.6.3 (linux64) logging started Tue Jul 14 16:27:27 2015


Gurobi 5.6.3 (linux64) logging started Wed Jul 15 14:53:27 2015


Gurobi 5.6.3 (linux64) logging started Wed Jul 15 14:54:29 2015


Gurobi 5.6.3 (linux64) logging started Wed Jul 15 14:54:56 2015


Gurobi 5.6.3 (linux64) logging started Thu Jul 16 16:22:53 2015


Gurobi 5.6.3 (linux64) logging started Thu Jul 16 16:23:20 2015


Gurobi 5.6.3 (linux64) logging started Thu Jul 16 16:29:22 2015


Gurobi 5.6.3 (linux64) logging started Thu Jul 16 16:29:29 2015


Gurobi 5.6.3 (linux64) logging started Thu Jul 16 16:29:47 2015


Gurobi 5.6.3 (linux64) logging started Thu Jul 16 16:38:58 2015


Gurobi 5.6.3 (linux64) logging started Thu Jul 16 16:42:45 2015


Gurobi 5.6.3 (linux64) logging started Thu Jul 16 17:18:43 2015


Gurobi 5.6.3 (linux64) logging started Thu Jul 16 17:19:19 2015


Gurobi 5.6.3 (linux64) logging started Thu Jul 16 17:24:32 2015


Gurobi 5.6.3 (linux64) logging started Thu Jul 16 17:25:27 2015


Gurobi 5.6.3 (linux64) logging started Thu Jul 16 17:26:32 2015


Gurobi 5.6.3 (linux64) logging started Thu Jul 16 10:41:07 2015


Gurobi 5.6.3 (linux64) logging started Thu Jul 16 10:41:20 2015


Gurobi 5.6.3 (linux64) logging started Thu Jul 16 10:53:04 2015


Gurobi 5.6.3 (linux64) logging started Thu Jul 16 11:02:18 2015


Gurobi 5.6.3 (linux64) logging started Thu Jul 16 12:00:34 2015


Gurobi 5.6.3 (linux64) logging started Thu Jul 16 12:07:44 2015


Gurobi 5.6.3 (linux64) logging started Thu Jul 16 12:08:04 2015


Gurobi 5.6.3 (linux64) logging started Thu Jul 16 12:09:20 2015


Gurobi 5.6.3 (linux64) logging started Thu Jul 16 12:10:40 2015


Gurobi 5.6.3 (linux64) logging started Thu Jul 16 12:11:40 2015


Gurobi 5.6.3 (linux64) logging started Thu Jul 16 12:18:44 2015


Gurobi 5.6.3 (linux64) logging started Thu Jul 16 12:23:31 2015


Gurobi 5.6.3 (linux64) logging started Thu Jul 16 13:38:15 2015


Gurobi 5.6.3 (linux64) logging started Thu Jul 16 15:08:26 2015


Gurobi 5.6.3 (linux64) logging started Thu Jul 16 15:10:30 2015


Gurobi 5.6.3 (linux64) logging started Thu Jul 16 15:12:39 2015


Gurobi 5.6.3 (linux64) logging started Thu Jul 16 15:14:26 2015


Gurobi 5.6.3 (linux64) logging started Thu Jul 16 15:15:54 2015


Gurobi 5.6.3 (linux64) logging started Thu Jul 16 15:17:10 2015


Gurobi 5.6.3 (linux64) logging started Thu Jul 16 15:18:28 2015


Gurobi 5.6.3 (linux64) logging started Thu Jul 16 15:23:27 2015


Gurobi 5.6.3 (linux64) logging started Thu Jul 16 15:25:09 2015


Gurobi 5.6.3 (linux64) logging started Fri Jul 17 15:49:25 2015


Gurobi 5.6.3 (linux64) logging started Fri Jul 17 15:50:04 2015


Gurobi 5.6.3 (linux64) logging started Fri Jul 17 17:04:04 2015


Gurobi 5.6.3 (linux64) logging started Fri Jul 17 17:04:40 2015


Gurobi 5.6.3 (linux64) logging started Fri Jul 17 17:05:45 2015


Gurobi 5.6.3 (linux64) logging started Fri Jul 17 17:06:22 2015


Gurobi 5.6.3 (linux64) logging started Fri Jul 17 17:17:33 2015


Gurobi 5.6.3 (linux64) logging started Fri Jul 17 17:18:09 2015


Gurobi 5.6.3 (linux64) logging started Fri Jul 17 17:18:48 2015


Gurobi 5.6.3 (linux64) logging started Fri Jul 17 17:19:24 2015


Gurobi 5.6.3 (linux64) logging started Fri Jul 17 17:20:05 2015


Gurobi 5.6.3 (linux64) logging started Fri Jul 17 17:21:49 2015


Gurobi 5.6.3 (linux64) logging started Fri Jul 17 17:25:50 2015


Gurobi 5.6.3 (linux64) logging started Fri Jul 17 17:27:34 2015


Gurobi 5.6.3 (linux64) logging started Fri Jul 17 17:27:45 2015


Gurobi 5.6.3 (linux64) logging started Fri Jul 17 17:28:54 2015


Gurobi 5.6.3 (linux64) logging started Fri Jul 17 17:31:28 2015


Gurobi 5.6.3 (linux64) logging started Fri Jul 17 17:32:13 2015


Gurobi 5.6.3 (linux64) logging started Fri Jul 17 17:34:03 2015


Gurobi 5.6.3 (linux64) logging started Fri Jul 17 17:34:56 2015


Gurobi 5.6.3 (linux64) logging started Sun Jul 19 10:29:58 2015


Gurobi 5.6.3 (linux64) logging started Sun Jul 19 10:30:53 2015


Gurobi 5.6.3 (linux64) logging started Tue Jul 21 20:40:18 2015


Gurobi 5.6.3 (linux64) logging started Tue Jul 21 20:42:10 2015


Gurobi 5.6.3 (linux64) logging started Tue Jul 21 21:05:37 2015


Gurobi 5.6.3 (linux64) logging started Tue Jul 21 21:06:30 2015


Gurobi 5.6.3 (linux64) logging started Tue Jul 21 21:08:38 2015


Gurobi 5.6.3 (linux64) logging started Tue Jul 21 21:09:00 2015


Gurobi 5.6.3 (linux64) logging started Tue Jul 21 21:14:31 2015


Gurobi 5.6.3 (linux64) logging started Wed Jul 22 00:48:52 2015


Gurobi 5.6.3 (linux64) logging started Wed Jul 22 01:46:51 2015


Gurobi 5.6.3 (linux64) logging started Wed Jul 22 08:21:20 2015


Gurobi 5.6.3 (linux64) logging started Wed Jul 22 13:15:15 2015


Gurobi 5.6.3 (linux64) logging started Wed Jul 22 13:18:45 2015


Gurobi 5.6.3 (linux64) logging started Wed Jul 22 13:24:52 2015


Gurobi 5.6.3 (linux64) logging started Wed Jul 22 13:25:35 2015


Gurobi 5.6.3 (linux64) logging started Wed Jul 22 13:27:25 2015


Gurobi 5.6.3 (linux64) logging started Wed Jul 22 13:27:58 2015


Gurobi 5.6.3 (linux64) logging started Wed Jul 22 13:29:32 2015


Gurobi 5.6.3 (linux64) logging started Wed Jul 22 13:30:00 2015


Gurobi 5.6.3 (linux64) logging started Wed Jul 22 13:30:59 2015


Gurobi 5.6.3 (linux64) logging started Wed Jul 22 13:34:14 2015


Gurobi 5.6.3 (linux64) logging started Wed Jul 22 13:39:52 2015


Gurobi 5.6.3 (linux64) logging started Wed Jul 22 13:40:13 2015


Gurobi 5.6.3 (linux64) logging started Wed Jul 22 13:42:21 2015


Gurobi 5.6.3 (linux64) logging started Wed Jul 22 13:56:17 2015


Gurobi 5.6.3 (linux64) logging started Wed Jul 22 13:57:11 2015


Gurobi 5.6.3 (linux64) logging started Wed Jul 22 14:13:11 2015


Gurobi 5.6.3 (linux64) logging started Wed Jul 22 14:13:28 2015


Gurobi 5.6.3 (linux64) logging started Wed Jul 22 14:13:46 2015


Gurobi 5.6.3 (linux64) logging started Thu Jul 23 15:18:12 2015


Gurobi 5.6.3 (linux64) logging started Thu Jul 23 15:22:58 2015


Gurobi 5.6.3 (linux64) logging started Thu Jul 23 15:25:01 2015


Gurobi 5.6.3 (linux64) logging started Thu Jul 23 15:26:59 2015


Gurobi 5.6.3 (linux64) logging started Thu Jul 23 15:52:11 2015


Gurobi 5.6.3 (linux64) logging started Thu Jul 23 17:56:46 2015


Gurobi 5.6.3 (linux64) logging started Thu Jul 23 18:45:11 2015


Gurobi 5.6.3 (linux64) logging started Thu Jul 23 18:50:07 2015


Gurobi 5.6.3 (linux64) logging started Sat Jul 25 13:43:59 2015


Gurobi 5.6.3 (linux64) logging started Sat Jul 25 13:44:20 2015


Gurobi 5.6.3 (linux64) logging started Sat Jul 25 13:46:49 2015


Gurobi 5.6.3 (linux64) logging started Sat Jul 25 13:57:46 2015


Gurobi 5.6.3 (linux64) logging started Sat Jul 25 13:58:47 2015


Gurobi 5.6.3 (linux64) logging started Sat Jul 25 13:58:52 2015


Gurobi 5.6.3 (linux64) logging started Sat Jul 25 13:58:58 2015


Gurobi 5.6.3 (linux64) logging started Sat Jul 25 14:01:43 2015


Gurobi 5.6.3 (linux64) logging started Sat Jul 25 14:04:00 2015


Gurobi 5.6.3 (linux64) logging started Sat Jul 25 14:08:31 2015


Gurobi 5.6.3 (linux64) logging started Sat Jul 25 14:12:14 2015


Gurobi 5.6.3 (linux64) logging started Sat Jul 25 14:13:16 2015


Gurobi 5.6.3 (linux64) logging started Sat Jul 25 14:15:30 2015


Gurobi 5.6.3 (linux64) logging started Sat Jul 25 14:16:42 2015


Gurobi 5.6.3 (linux64) logging started Sat Jul 25 14:21:52 2015


Gurobi 5.6.3 (linux64) logging started Sat Jul 25 14:26:55 2015


Gurobi 5.6.3 (linux64) logging started Sat Jul 25 14:29:03 2015


Gurobi 5.6.3 (linux64) logging started Sat Jul 25 14:29:28 2015


Gurobi 5.6.3 (linux64) logging started Sat Jul 25 14:29:53 2015


Gurobi 5.6.3 (linux64) logging started Sat Jul 25 14:30:52 2015


Gurobi 5.6.3 (linux64) logging started Mon Jul 27 11:00:34 2015


Gurobi 5.6.3 (linux64) logging started Mon Jul 27 11:01:27 2015


Gurobi 5.6.3 (linux64) logging started Mon Jul 27 11:02:25 2015


Gurobi 5.6.3 (linux64) logging started Mon Jul 27 11:15:47 2015


Gurobi 5.6.3 (linux64) logging started Mon Jul 27 11:17:52 2015


Gurobi 5.6.3 (linux64) logging started Mon Jul 27 11:20:10 2015


Gurobi 5.6.3 (linux64) logging started Mon Jul 27 11:21:18 2015


Gurobi 5.6.3 (linux64) logging started Mon Jul 27 11:25:39 2015


Gurobi 5.6.3 (linux64) logging started Mon Jul 27 11:26:57 2015


Gurobi 5.6.3 (linux64) logging started Mon Jul 27 11:31:33 2015


Gurobi 5.6.3 (linux64) logging started Mon Jul 27 11:31:47 2015


Gurobi 5.6.3 (linux64) logging started Mon Jul 27 11:54:15 2015


Gurobi 5.6.3 (linux64) logging started Mon Jul 27 11:54:41 2015


Gurobi 5.6.3 (linux64) logging started Mon Jul 27 11:57:34 2015


Gurobi 5.6.3 (linux64) logging started Mon Jul 27 13:55:25 2015


Gurobi 5.6.3 (linux64) logging started Mon Jul 27 13:57:06 2015


Gurobi 5.6.3 (linux64) logging started Mon Jul 27 14:34:02 2015


Gurobi 5.6.3 (linux64) logging started Tue Jul 28 10:27:30 2015


Gurobi 5.6.3 (linux64) logging started Tue Jul 28 10:42:07 2015


Gurobi 5.6.3 (linux64) logging started Tue Jul 28 10:47:30 2015


Gurobi 5.6.3 (linux64) logging started Tue Jul 28 10:49:48 2015


Gurobi 5.6.3 (linux64) logging started Tue Jul 28 10:51:18 2015


Gurobi 5.6.3 (linux64) logging started Tue Jul 28 11:19:00 2015


Gurobi 5.6.3 (linux64) logging started Tue Jul 28 11:19:45 2015


Gurobi 5.6.3 (linux64) logging started Tue Jul 28 11:20:56 2015


Gurobi 5.6.3 (linux64) logging started Tue Jul 28 11:24:29 2015


Gurobi 5.6.3 (linux64) logging started Tue Jul 28 11:29:36 2015


Gurobi 5.6.3 (linux64) logging started Tue Jul 28 11:30:39 2015


Gurobi 5.6.3 (linux64) logging started Wed Jul 29 11:40:52 2015


Gurobi 5.6.3 (linux64) logging started Wed Jul 29 11:47:27 2015


Gurobi 5.6.3 (linux64) logging started Wed Jul 29 11:48:24 2015


Gurobi 5.6.3 (linux64) logging started Wed Jul 29 11:51:27 2015


Gurobi 5.6.3 (linux64) logging started Wed Jul 29 13:33:35 2015


Gurobi 5.6.3 (linux64) logging started Wed Jul 29 13:33:53 2015


Gurobi 5.6.3 (linux64) logging started Wed Jul 29 13:35:23 2015


Gurobi 5.6.3 (linux64) logging started Wed Jul 29 16:28:09 2015


Gurobi 5.6.3 (linux64) logging started Wed Jul 29 16:28:34 2015


Gurobi 5.6.3 (linux64) logging started Wed Jul 29 16:36:18 2015


Gurobi 5.6.3 (linux64) logging started Mon Aug  3 23:29:09 2015


Gurobi 5.6.3 (linux64) logging started Mon Aug  3 23:37:19 2015


Gurobi 5.6.3 (linux64) logging started Mon Aug  3 23:37:57 2015


Gurobi 5.6.3 (linux64) logging started Tue Aug 18 12:32:18 2015


Gurobi 5.6.3 (linux64) logging started Wed Aug 19 15:20:52 2015


Gurobi 5.6.3 (linux64) logging started Wed Aug 19 15:22:19 2015


Gurobi 5.6.3 (linux64) logging started Wed Aug 19 15:29:03 2015


Gurobi 5.6.3 (linux64) logging started Wed Aug 19 15:31:07 2015


Gurobi 5.6.3 (linux64) logging started Wed Aug 19 15:31:40 2015


Gurobi 5.6.3 (linux64) logging started Wed Aug 19 15:32:01 2015


Gurobi 5.6.3 (linux64) logging started Wed Aug 19 15:32:30 2015


Gurobi 5.6.3 (linux64) logging started Wed Aug 19 15:33:07 2015


Gurobi 5.6.3 (linux64) logging started Wed Aug 19 15:44:05 2015


Gurobi 5.6.3 (linux64) logging started Wed Aug 19 15:47:15 2015


Gurobi 5.6.3 (linux64) logging started Wed Aug 19 15:48:20 2015


Gurobi 5.6.3 (linux64) logging started Wed Aug 19 15:49:50 2015


Gurobi 5.6.3 (linux64) logging started Wed Aug 19 15:52:40 2015


Gurobi 5.6.3 (linux64) logging started Wed Aug 19 15:55:11 2015


Gurobi 5.6.3 (linux64) logging started Wed Aug 19 15:56:24 2015


Gurobi 5.6.3 (linux64) logging started Wed Aug 19 15:56:54 2015


Gurobi 5.6.3 (linux64) logging started Wed Aug 19 16:20:20 2015


Gurobi 5.6.3 (linux64) logging started Wed Aug 19 16:23:05 2015


Gurobi 5.6.3 (linux64) logging started Wed Aug 19 16:25:18 2015


Gurobi 5.6.3 (linux64) logging started Wed Aug 19 16:27:47 2015


Gurobi 5.6.3 (linux64) logging started Wed Aug 19 16:28:01 2015


Gurobi 5.6.3 (linux64) logging started Wed Aug 19 16:30:25 2015


Gurobi 5.6.3 (linux64) logging started Wed Aug 19 16:30:48 2015


Gurobi 5.6.3 (linux64) logging started Wed Aug 19 16:32:21 2015


Gurobi 5.6.3 (linux64) logging started Wed Aug 19 16:34:08 2015


Gurobi 5.6.3 (linux64) logging started Wed Aug 19 16:34:19 2015


Gurobi 5.6.3 (linux64) logging started Wed Aug 19 16:36:17 2015


Gurobi 5.6.3 (linux64) logging started Wed Aug 19 16:38:21 2015


Gurobi 5.6.3 (linux64) logging started Wed Aug 19 21:17:00 2015


Gurobi 5.6.3 (linux64) logging started Wed Aug 19 21:17:09 2015


Gurobi 5.6.3 (linux64) logging started Thu Aug 20 14:00:58 2015


Gurobi 5.6.3 (linux64) logging started Thu Aug 20 14:05:58 2015


Gurobi 5.6.3 (linux64) logging started Thu Aug 20 14:10:53 2015


Gurobi 5.6.3 (linux64) logging started Thu Aug 20 14:16:45 2015


Gurobi 5.6.3 (linux64) logging started Thu Aug 20 14:58:35 2015


Gurobi 5.6.3 (linux64) logging started Thu Aug 20 15:03:13 2015


Gurobi 5.6.3 (linux64) logging started Thu Aug 20 15:03:57 2015


Gurobi 5.6.3 (linux64) logging started Thu Aug 20 15:04:13 2015


Gurobi 5.6.3 (linux64) logging started Thu Aug 20 15:05:24 2015


Gurobi 5.6.3 (linux64) logging started Thu Aug 20 15:05:56 2015


Gurobi 5.6.3 (linux64) logging started Thu Aug 20 15:06:05 2015


Gurobi 5.6.3 (linux64) logging started Thu Aug 20 15:06:35 2015


Gurobi 5.6.3 (linux64) logging started Thu Aug 20 15:06:50 2015


Gurobi 5.6.3 (linux64) logging started Thu Aug 20 15:06:59 2015


Gurobi 5.6.3 (linux64) logging started Thu Aug 20 15:07:11 2015


Gurobi 5.6.3 (linux64) logging started Thu Aug 20 15:27:55 2015


Gurobi 5.6.3 (linux64) logging started Thu Aug 20 15:28:20 2015


Gurobi 5.6.3 (linux64) logging started Thu Aug 20 15:30:31 2015


Gurobi 5.6.3 (linux64) logging started Thu Aug 20 15:34:57 2015


Gurobi 5.6.3 (linux64) logging started Thu Aug 20 15:48:28 2015


Gurobi 5.6.3 (linux64) logging started Thu Aug 20 15:48:42 2015


Gurobi 5.6.3 (linux64) logging started Thu Aug 20 15:51:14 2015


Gurobi 5.6.3 (linux64) logging started Thu Aug 20 16:01:44 2015


Gurobi 5.6.3 (linux64) logging started Thu Aug 20 16:09:46 2015


Gurobi 5.6.3 (linux64) logging started Thu Aug 20 16:20:02 2015


Gurobi 5.6.3 (linux64) logging started Thu Aug 20 16:42:09 2015


Gurobi 5.6.3 (linux64) logging started Thu Aug 20 16:42:51 2015


Gurobi 5.6.3 (linux64) logging started Thu Aug 20 18:22:13 2015


Gurobi 5.6.3 (linux64) logging started Thu Aug 20 18:41:24 2015


Gurobi 5.6.3 (linux64) logging started Thu Aug 20 18:43:44 2015


Gurobi 5.6.3 (linux64) logging started Thu Aug 20 18:44:02 2015


Gurobi 5.6.3 (linux64) logging started Thu Aug 20 18:44:12 2015


Gurobi 5.6.3 (linux64) logging started Thu Aug 20 18:44:20 2015


Gurobi 5.6.3 (linux64) logging started Thu Aug 20 18:44:54 2015


Gurobi 5.6.3 (linux64) logging started Thu Aug 20 18:45:04 2015


Gurobi 5.6.3 (linux64) logging started Thu Aug 20 18:45:13 2015


Gurobi 5.6.3 (linux64) logging started Fri Aug 21 16:05:19 2015


Gurobi 5.6.3 (linux64) logging started Fri Aug 21 16:07:44 2015


Gurobi 5.6.3 (linux64) logging started Fri Aug 21 16:09:29 2015


Gurobi 5.6.3 (linux64) logging started Fri Aug 21 16:21:55 2015


Gurobi 5.6.3 (linux64) logging started Fri Aug 21 16:22:14 2015


Gurobi 5.6.3 (linux64) logging started Fri Aug 21 16:23:41 2015


Gurobi 5.6.3 (linux64) logging started Fri Aug 21 16:24:23 2015


Gurobi 5.6.3 (linux64) logging started Fri Aug 21 16:26:05 2015


Gurobi 5.6.3 (linux64) logging started Mon Aug 24 14:33:30 2015


Gurobi 5.6.3 (linux64) logging started Mon Aug 24 14:34:06 2015


Gurobi 5.6.3 (linux64) logging started Mon Aug 24 14:34:24 2015


Gurobi 5.6.3 (linux64) logging started Mon Aug 24 15:30:42 2015


Gurobi 5.6.3 (linux64) logging started Mon Aug 24 15:31:58 2015


Gurobi 5.6.3 (linux64) logging started Mon Aug 24 15:32:31 2015


Gurobi 5.6.3 (linux64) logging started Mon Aug 24 15:34:21 2015


Gurobi 5.6.3 (linux64) logging started Mon Aug 24 15:35:44 2015


Gurobi 5.6.3 (linux64) logging started Mon Aug 24 15:36:22 2015


Gurobi 5.6.3 (linux64) logging started Mon Aug 24 15:57:28 2015


Gurobi 5.6.3 (linux64) logging started Mon Aug 24 16:00:43 2015


Gurobi 5.6.3 (linux64) logging started Mon Aug 24 16:01:15 2015


Gurobi 5.6.3 (linux64) logging started Mon Aug 24 16:22:07 2015


Gurobi 5.6.3 (linux64) logging started Mon Aug 24 16:24:49 2015


Gurobi 5.6.3 (linux64) logging started Mon Aug 24 22:10:27 2015


Gurobi 5.6.3 (linux64) logging started Mon Aug 24 22:11:25 2015


Gurobi 5.6.3 (linux64) logging started Mon Aug 24 22:12:19 2015


Gurobi 5.6.3 (linux64) logging started Mon Aug 24 22:13:51 2015


Gurobi 5.6.3 (linux64) logging started Mon Aug 24 22:19:46 2015


Gurobi 5.6.3 (linux64) logging started Mon Aug 24 22:20:38 2015


Gurobi 5.6.3 (linux64) logging started Mon Aug 24 22:22:50 2015


Gurobi 5.6.3 (linux64) logging started Mon Aug 24 22:24:25 2015


Gurobi 5.6.3 (linux64) logging started Mon Aug 24 22:36:58 2015


Gurobi 5.6.3 (linux64) logging started Fri Sep 11 14:55:03 2015


Gurobi 5.6.3 (linux64) logging started Fri Sep 11 14:55:35 2015


Gurobi 5.6.3 (linux64) logging started Fri Sep 11 14:56:21 2015


Gurobi 5.6.3 (linux64) logging started Fri Sep 11 14:56:44 2015


Gurobi 5.6.3 (linux64) logging started Fri Sep 11 14:57:00 2015


Gurobi 5.6.3 (linux64) logging started Fri Sep 11 14:57:51 2015


Gurobi 5.6.3 (linux64) logging started Fri Sep 11 15:00:07 2015

